Version identifier: 22.1.1.0 | 2022-11-28 | 9160aff4d
CPXPARAM_Read_DataCheck                          1
CPXPARAM_MIP_Cuts_Covers                         1
CPXPARAM_MIP_Strategy_NodeSelect                 2
CPXPARAM_MIP_Cuts_FlowCovers                     1
CPXPARAM_MIP_Cuts_MIRCut                         1
CPXPARAM_MIP_Strategy_HeuristicFreq              5
CPXPARAM_TimeLimit                               60
Tried aggregator 2 times.
MIP Presolve eliminated 76 rows and 161 columns.
MIP Presolve added 32 rows and 0 columns.
MIP Presolve modified 2938 coefficients.
Aggregator did 8 substitutions.
Reduced MIP has 688 rows, 848 columns, and 4029 nonzeros.
Reduced MIP has 824 binaries, 0 generals, 0 SOSs, and 0 indicators.
Presolve time = 0.00 sec. (5.89 ticks)
Found incumbent of value 3222.000000 after 0.01 sec. (11.36 ticks)
Probing time = 0.00 sec. (2.74 ticks)
Tried aggregator 1 time.
Detecting symmetries...
Reduced MIP has 688 rows, 848 columns, and 4029 nonzeros.
Reduced MIP has 824 binaries, 0 generals, 0 SOSs, and 0 indicators.
Presolve time = 0.00 sec. (2.64 ticks)
Probing time = 0.00 sec. (2.71 ticks)
Clique table members: 2413.
MIP emphasis: balance optimality and feasibility.
MIP search method: dynamic search.
Parallel mode: deterministic, using up to 12 threads.
Root relaxation solution time = 0.00 sec. (2.17 ticks)

        Nodes                                         Cuts/
   Node  Left     Objective  IInf  Best Integer    Best Bound    ItCnt     Gap

*     0+    0                         3222.0000        0.0000           100.00%
*     0+    0                         2047.0000        0.0000           100.00%
      0     0      213.4083    40     2047.0000      213.4083       84   89.57%
      0     0      226.3778    39     2047.0000      Cuts: 46      151   88.94%
      0     0      228.0000    42     2047.0000     Cuts: 158      200   88.86%
      0     0      229.3500    48     2047.0000      Cuts: 90      231   88.80%
      0     0      229.3500    46     2047.0000      Cuts: 19      250   88.80%
      0     0      229.4067    43     2047.0000      Cuts: 10      289   88.79%
Detecting symmetries...
      0     0      229.4769    52     2047.0000      Cuts: 32      319   88.79%
      0     0      229.4769    46     2047.0000      Cuts: 46      336   88.79%
*     0+    0                          350.0000      229.4769            34.44%
*     0+    0                          249.0000      229.4769             7.84%
Detecting symmetries...

Repeating presolve.
Tried aggregator 2 times.
MIP Presolve eliminated 459 rows and 502 columns.
MIP Presolve added 2 rows and 0 columns.
MIP Presolve modified 28 coefficients.
Aggregator did 2 substitutions.
Reduced MIP has 229 rows, 344 columns, and 1145 nonzeros.
Reduced MIP has 320 binaries, 0 generals, 0 SOSs, and 0 indicators.
Presolve time = 0.00 sec. (1.81 ticks)
Probing fixed 2 vars, tightened 1 bounds.
Probing time = 0.00 sec. (0.82 ticks)
Cover probing fixed 0 vars, tightened 13 bounds.
Tried aggregator 1 time.
Detecting symmetries...
MIP Presolve eliminated 1 rows and 2 columns.
MIP Presolve modified 99 coefficients.
Reduced MIP has 228 rows, 342 columns, and 1138 nonzeros.
Reduced MIP has 318 binaries, 0 generals, 0 SOSs, and 0 indicators.
Presolve time = 0.00 sec. (0.87 ticks)
Represolve time = 0.01 sec. (5.30 ticks)
Probing time = 0.00 sec. (0.77 ticks)
Clique table members: 834.
MIP emphasis: balance optimality and feasibility.
MIP search method: dynamic search.
Parallel mode: deterministic, using up to 12 threads.
Root relaxation solution time = 0.00 sec. (2.37 ticks)

        Nodes                                         Cuts/
   Node  Left     Objective  IInf  Best Integer    Best Bound    ItCnt     Gap

*     0+    0                          249.0000      229.4769             7.84%
      0     0      229.4769    43      249.0000      229.4769      522    7.84%
      0     0      229.8000    29      249.0000      Cuts: 52      560    7.71%
      0     0      229.8222    37      249.0000      Cuts: 39      608    7.70%
      0     0      230.1500    39      249.0000      Cuts: 28      645    7.57%
      0     0      230.1500    36      249.0000      Cuts: 40      667    7.57%
      0     0      230.9315    60      249.0000      Cuts: 30      739    7.26%
Detecting symmetries...
      0     0      231.7569    65      249.0000      Cuts: 36      792    6.92%
      0     0      233.2411    74      249.0000      Cuts: 45      835    6.33%
      0     0      233.3146    74      249.0000      Cuts: 22      853    6.30%
      0     0      233.4548    93      249.0000       Cuts: 9      870    6.24%
      0     0      233.6529    96      249.0000      Cuts: 13      888    6.16%
      0     0      234.0732    87      249.0000      Cuts: 15      916    5.99%
      0     0      234.6479    84      249.0000      Cuts: 20      948    5.76%
      0     0      234.9825    92      249.0000      Cuts: 19      973    5.63%
      0     0      235.4500    80      249.0000      Cuts: 18     1000    5.44%
      0     0      235.5237    93      249.0000       Cuts: 7     1010    5.41%
      0     0      235.5981    95      249.0000      Cuts: 12     1028    5.38%
      0     0      235.6011    97      249.0000    MIRcuts: 3     1033    5.38%
*     0+    0                          243.0000      235.6011             3.04%
      0     0        cutoff            243.0000      243.0000     1033    0.00%
Elapsed time = 0.26 sec. (191.02 ticks, tree = 0.01 MB, solutions = 5)

GUB cover cuts applied:  2
Clique cuts applied:  9
Cover cuts applied:  38
Implied bound cuts applied:  10
Flow cuts applied:  0
Mixed integer rounding cuts applied:  34
Zero-half cuts applied:  18
Lift and project cuts applied:  1
Gomory fractional cuts applied:  8

Root node processing (before b&c):
  Real time             =    0.26 sec. (191.09 ticks)
Parallel b&c, 12 threads:
  Real time             =    0.00 sec. (0.00 ticks)
  Sync time (average)   =    0.00 sec.
  Wait time (average)   =    0.00 sec.
                          ------------
Total (root+branch&cut) =    0.26 sec. (191.09 ticks)
